3 
4  56 
5  11 26 41 56 
6  06 14 22 29 37 44 52 59 
7  07 14 22 29 37 44 52 59 
8  07 14 22 29 37 45 55 
9  03 10 18 25 33 40 48 55 
10  03 10 18 25 33 40 48 55 
11  03 10 18 25 33 40 48 55 
12  03 10 18 25 33 40 48 55 
13  02 09 17 24 32 39 47 54 
14  02 09 17 24 32 39 47 54 
15  02 09 17 24 32 39 47 54 
16  02 09 17 24 32 39 47 54 
17  02 09 17 24 32 39 47 54 
18  02 09 17 26 34 41 49 56 
19  04 11 19 26 34 41 49 56 
20  04 11 19 26 34 41 49 
21  04 15 31 46 
22  02 16 32 46 
23  01 18 
0 
